c Ordering principle
c  on graph .
c
c Generated with `cnfgen`
c (C) 20122016 Massimo Lauria <lauria.massimo@gmail.com>
c https://massimolauria.github.io/cnfgen
c
c COMMAND LINE: cnfgen op 2
c
p cnf 2 3
2 0
1 0
-1 2 0
